20 200
1 2 3 4 5 6 7 8 9 10 11 12 13 14 15 16 17 18 19 20 21 22 23 24 25 26 27 28 29 30 31 32 33 34 35 36 37 38 39 40 41 42 43 44 45 46 47 48 49 50 51 52 53 54 55 56 57 58 59 60 61 62 63 64 65 66 67 68 69 70 71 72 73 74 75 76 77 78 79 80 81 82 83 84 85 86 87 88 89 90 91 92 93 94 95 96 97 98 99 100 1 2 3 4 5 6 7 8 9 10 11 12 13 14 15 16 17 18 19 20 21 22 23 24 25 26 27 28 29 30 31 32 33 34 35 36 37 38 39 40 41 42 43 44 45 46 47 48 49 50 51 52 53 54 55 56 57 58 59 60 61 62 63 64 65 66 67 68 69 70 71 72 73 74 75 76 77 78 79 80 81 82 83 84 85 86 87 88 89 90 91 92 93 94 95 96 97 98 99 100
10 30 50 70 90 110 130 150 170 190 12 32 52 72 92 112 132 152 172 192
10 31 51 71 91 111 131 151 171 191 11 31 51 71 91 111 131 151 171 191
10 32 52 72 92 112 132 152 172 192 12 32 52 72 92 112 132 152 172 192
10 33 53 73 93 113 133 153 173 193 13 33 53 73 93 113 133 153 173 193
10 34 54 74 94 114 134 154 174 194 14 34 54 74 94 114 134 154 174 194
10 35 55 75 95 115 135 155 175 195 15 35 55 75 95 115 135 155 175 195
10 36 56 76 96 116 136 156 176 196 16 36 56 76 96 116 136 156 176 196
10 37 57 77 97 117 137 157 177 197 17 37 57 77 97 117 137 157 177 197
10 38 58 78 98 118 138 158 178 198 18 38 58 78 98 118 138 158 178 198
10 39 59 79 99 119 139 159 179 199 19 39 59 79 99 119 139 159 179 199
10 40 60 80 100 120 140 160 180 200 20 40 60 80 100 120 140 160 180 200
10 41 61 81 101 121 141 161 181 21 41 61 81 101 121 141 161 181 21
10 42 62 82 102 122 142 162 182 22 42 62 82 102 122 142 162 182 22
10 43 63 83 103 123 143 163 183 23 43 63 83 103 123 143 163 183 23
10 44 64 84 104 124 144 164 184 24 44 64 84 104 124 144 164 184 24
10 45 65 85 105 125 145 165 185 25 45 65 85 105 125 145 165 185 25
10 46 66 86 106 126 146 166 186 26 46 66 86 106 126 146 166 186 26
10 47 67 87 107 127 147 167 187 27 47 67 87 107 127 147 167 187 27
10 48 68 88 108 128 148 168 188 28 48 68 88 108 128 148 168 188 28
10 49 69 89 109 129 149 169 189 29 49 69 89 109 129 149 169 189 29
